StudentsNr = 10;
InstructorsNr = 33;
DaysNr = 2;
SlotsPerDay = 10;
AvailabilitySlotsLenght = 2;
RoomNr = 2;
ProgrammNr = 2;
DegreeNr = 2;
RolesNr = 1;
CoursesNr = 8;
InstructorsProgramm = [{1}, {1}, {1}, {1, 2}, {1, 2}, {1}, {2}, {1, 2}, {2}, {1}, {1, 2}, {1}, {1, 2}, {2}, {1, 2}, {2}, {1, 2}, {1}, {1}, {2}, {2}, {1, 2}, {2}, {2}, {1}, {2}, {2}, {1}, {1}, {2}, {1, 2}, {2}, {2}];
InstructorRolesPerProgramm = [|{4, 6, 10, 11, 13, 15, 19, 25}|{4, 7, 11, 13, 14, 15, 16, 21, 23, 24, 26}|];
InstructorsAvailability = [|1, 1, 1, 1, 1, 1, 1, 1, 1, 1, |0, 1, 1, 1, 1, 0, 1, 1, 1, 1, |1, 1, 1, 1, 1, 1, 1, 1, 1, 1, |0, 1, 1, 0, 1, 1, 1, 1, 1, 1, |1, 1, 1, 1, 1, 1, 1, 1, 0, 1, |1, 1, 1, 1, 0, 1, 1, 0, 1, 1, |1, 1, 1, 1, 0, 1, 1, 1, 1, 1, |0, 1, 1, 1, 1, 1, 1, 0, 0, 1, |1, 1, 1, 1, 1, 1, 1, 1, 1, 1, |0, 1, 1, 0, 1, 1, 1, 1, 1, 1, |1, 1, 1, 1, 1, 1, 0, 0, 0, 1, |0, 1, 0, 0, 0, 1, 1, 1, 0, 1, |1, 1, 1, 1, 1, 1, 1, 1, 1, 1, |1, 1, 0, 0, 0, 0, 0, 0, 1, 1, |1, 1, 1, 1, 1, 1, 1, 1, 1, 1, |0, 0, 0, 1, 1, 0, 0, 0, 1, 1, |0, 1, 1, 1, 1, 1, 1, 1, 1, 1, |0, 1, 1, 1, 1, 1, 1, 1, 1, 0, |0, 0, 0, 1, 1, 1, 1, 1, 1, 1, |1, 1, 0, 1, 0, 1, 1, 1, 1, 1, |0, 1, 1, 1, 1, 1, 1, 1, 1, 1, |1, 0, 0, 0, 1, 1, 1, 1, 0, 0, |1, 1, 1, 1, 1, 1, 1, 1, 1, 1, |0, 1, 0, 1, 1, 1, 1, 1, 1, 1, |0, 0, 1, 1, 1, 1, 1, 1, 1, 1, |1, 0, 1, 1, 1, 1, 1, 1, 1, 1, |1, 1, 0, 1, 1, 1, 0, 0, 0, 1, |1, 0, 0, 0, 0, 1, 1, 1, 1, 1, |1, 1, 1, 0, 1, 1, 1, 1, 1, 1, |0, 0, 1, 1, 1, 1, 1, 1, 1, 1, |0, 0, 0, 0, 0, 0, 1, 1, 1, 1, |1, 1, 1, 1, 0, 1, 1, 1, 1, 1, |1, 1, 1, 1, 1, 1, 1, 1, 1, 1|];
StudentsProgramm = [1, 2, 2, 2, 2, 2, 2, 2, 2, 2];
StudentsDegree = [2, 1, 1, 1, 2, 2, 1, 2, 1, 2];
StudentsSupervisorId = [1, 21, 4, 32, 11, 33, 26, 4, 32, 32];
StudentsCourseIds = [{2, 7, 8}, {1, 2, 3, 4, 5, 6, 7, 8}, {1, 2, 3, 4, 5, 6, 7, 8}, {1, 2, 3, 4, 5, 6, 7, 8}, {1, 6, 8}, {1, 4, 8}, {1, 2, 3, 4, 5, 6, 7, 8}, {2, 3, 7}, {1, 2, 3, 4, 5, 6, 7, 8}, {2, 3, 6}];
StudentsAvailability = [|0, 1, 1, 1, 1, 1, 1, 1, 1, 1, |1, 1, 1, 1, 1, 1, 1, 1, 1, 1, |1, 1, 1, 1, 1, 1, 1, 1, 1, 1, |0, 0, 0, 1, 1, 1, 1, 1, 1, 1, |1, 1, 1, 1, 1, 1, 1, 1, 1, 1, |0, 0, 1, 1, 1, 1, 1, 1, 0, 0, |0, 0, 0, 1, 1, 1, 1, 0, 1, 1, |1, 1, 0, 1, 1, 1, 1, 1, 1, 1, |0, 1, 1, 1, 1, 1, 1, 1, 1, 1, |0, 0, 1, 1, 1, 1, 1, 1, 0, 0|];
TheoryticalMinCard = [4, 2, 2, 2, 1, 1, 2, 1, 2, 1];
CoursesInstructorIds = [{2, 3, 4, 6, 7, 8, 9, 11, 14, 15, 17, 18, 19, 21, 22, 25, 26, 27, 29, 30, 32, 33}, {8}, {1, 5, 15, 16, 18, 24, 26, 27, 30, 33}, {2, 3, 4, 5, 6, 8, 9, 11, 12, 14, 15, 16, 19, 21, 23, 24, 25, 26, 30, 33}, {1, 2, 6, 7, 8, 9, 15, 17, 21, 22, 23, 24, 28, 29, 30, 32, 33}, {2, 5, 6, 9, 12, 18, 19, 20, 24, 25, 27, 30, 31, 32}, {3, 23, 28}, {18, 27, 30, 32}];
RolesDemands = [3];
RolesContinuity = [];
ExamLen = [1, 2, 2, 2, 1, 1, 2, 1, 2, 1];
LunchTsMinLen = 0;
LunchStarts = [4..7, 13..17];
SupervisorAvailable = 0;
OptimalLunchLenght = [3, 0];
OptimalStartTs = [0, 0];
OptimalFinishTs = [0, 10];
MinimizeRooms = 500;
RolesSoftContinuity = [|1|2|];
SameDegreeInRoom = 20;
Mergeability = 0;
